\ENCODING=ISO-8859-1
\Problem name: ilog.cplex

Minimize
 obj1: 0 tcas_0_Cur_Vertical_Sep_0#0 + 0 x4#1 + 0 x11#3
       + 0 tcas_0_Own_Tracked_Alt_0#5 + 0 tcas_0_Own_Tracked_Alt_Rate_0#6
       + 0 tcas_0_Other_Tracked_Alt_0#7 + 0 tcas_0_Alt_Layer_Value_0#8
       + 0 tcas_0_Up_Separation_0#9 + 0 tcas_0_Down_Separation_0#10
       + 0 tcas_0_Other_RAC_0#11 + 0 tcas_0_Other_Capability_0#12 + 0 x25#13
       + 0 tcas_0_Positive_RA_Alt_Thresh_0(0)#15
       + 0 tcas_0_Positive_RA_Alt_Thresh_0(1)#16
       + 0 tcas_0_Positive_RA_Alt_Thresh_0(2)#17
       + 0 tcas_0_Positive_RA_Alt_Thresh_0(3)#18 + 0 tcas_0_OLEV_0#19
       + 0 tcas_0_MAXALTDIFF_0#20 + 0 tcas_0_MINSEP_0#21
       + 0 tcas_0_NOZCROSS_0#22 + 0 tcas_0_NO_INTENT_0#23
       + 0 tcas_0_TCAS_TA_0#24 + 0 tcas_0_UNRESOLVED_0#25
       + 0 tcas_0_UPWARD_RA_0#26 + 0 tcas_0_DOWNWARD_RA_0#27 + 0 x45#28
       + 0 x51#30 + 0 x57#32 + 0 x63#34 + 0 x69#36 + 0 tcas_0_alt_sep_0#38
       + 0 x76#39 + 0 tcas_0_upward_crossing_situation_0#41 + 0 x83#42
       + 0 tcas_0_Inhibit_Biased_Climb_0#44 + 0 tcas_0_OLEV_1#45
       + 0 tcas_0_MAXALTDIFF_1#46 + 0 tcas_0_MINSEP_1#47
       + 0 tcas_0_NOZCROSS_1#48 + 0 tcas_0_NO_INTENT_1#49
       + 0 tcas_0_TCAS_TA_1#50 + 0 tcas_0_UNRESOLVED_1#51
       + 0 tcas_0_UPWARD_RA_1#52 + 0 tcas_0_DOWNWARD_RA_1#53
       + 0 tcas_0_Positive_RA_Alt_Thresh_1(0)#54
       + 0 tcas_0_Positive_RA_Alt_Thresh_1(1)#55
       + 0 tcas_0_Positive_RA_Alt_Thresh_1(2)#56
       + 0 tcas_0_Positive_RA_Alt_Thresh_1(3)#57
       + 0 tcas_0_Positive_RA_Alt_Thresh_2(1)#58
       + 0 tcas_0_Positive_RA_Alt_Thresh_2(0)#59
       + 0 tcas_0_Positive_RA_Alt_Thresh_2(2)#60
       + 0 tcas_0_Positive_RA_Alt_Thresh_2(3)#61
       + 0 tcas_0_Positive_RA_Alt_Thresh_3(2)#62
       + 0 tcas_0_Positive_RA_Alt_Thresh_3(0)#63
       + 0 tcas_0_Positive_RA_Alt_Thresh_3(1)#64
       + 0 tcas_0_Positive_RA_Alt_Thresh_3(3)#65
       + 0 tcas_0_Positive_RA_Alt_Thresh_4(3)#66
       + 0 tcas_0_Positive_RA_Alt_Thresh_4(0)#67
       + 0 tcas_0_Positive_RA_Alt_Thresh_4(1)#68
       + 0 tcas_0_Positive_RA_Alt_Thresh_4(2)#69 + 0 x139#70 + 0 x145#72
       + 0 x150#73 + 0 x157#75 + 0 x161#77 + 0 tcas_0_alt_sep_1#78
       + 0 tcas_0_Inhibit_Biased_Climb_1#79 + 0 x168#80 + 0 x179#82 + 0 x183#84
       + 0 tcas_0_Inhibit_Biased_Climb_2#85 + 0 x189#86 + 0 x200#88 + 0 x204#90
       + 0 x206#91 + 0 _1#93 + 0 x95#94 + 0 _4#96 + 0 x98#97 + 0 _5#99
       + 0 x101#100 + 0 _6#102 + 0 x104#103 + 0 _7#105 + 0 x107#106 + 0 _8#108
       + 0 x110#109 + 0 _9#111 + 0 x113#112 + 0 _10#114 + 0 x116#115
       + 0 _11#117 + 0 x119#118 + 0 _13#120 + 0 x122#121 + 0 _14#123
       + 0 x239#124 + 0 _15#126 + 0 x128#127 + 0 _16#129 + 0 x131#130
       + 0 x132#131 + 0 _17#132 + 0 x134#133 + 0 x135#134 + 0 _18#135
       + 0 x137#136 + 0 x138#137 + 0 _19#138 + 0 x140#139 + 0 x141#140
       + 0 _20#141 + 0 x143#142 + 0 x144#143 + 0 _21#144 + 0 x146#145
       + 0 x147#146 + 0 _22#147 + 0 x149#148 + 0 x150#149 + 0 _23#150
       + 0 x152#151 + 0 x153#152 + 0 _24#153 + 0 x155#154 + 0 x156#155
       + 0 _25#156 + 0 x158#157 + 0 x159#158 + 0 _31#159 + 0 x161#160
       + 0 x162#161 + 0 _33#162 + 0 x164#163 + 0 x165#164 + 0 _35#165
       + 0 x167#166 + 0 x168#167 + 0 _36#168 + 0 x170#169 + 0 x171#170
       + 0 _37#171 + 0 x173#172 + 0 x174#173 + 0 _38#174 + 0 x176#175
       + 0 x177#176 + 0 _39#177 + 0 x179#178 + 0 x180#179 + 0 _40#180
       + 0 x182#181 + 0 x183#182 + 0 _41#183 + 0 x185#184 + 0 x186#185
       + 0 _42#186 + 0 x188#187 + 0 x189#188 + 0 _43#189 + 0 x191#190
       + 0 x192#191 + 0 _44#192 + 0 x194#193 + 0 x195#194 + 0 _52#195
       + 0 x197#196 + 0 x198#197 + 0 _53#198 + 0 x200#199 + 0 x201#200
       + 0 _56#201 + 0 x203#202 + 0 _59#204 + 0 x206#205 + 0 _2#207
       + 0 x209#208 + 0 x210#209 + 0 x211#210 + 0 x215#214 + 0 _3#216
       + 0 x218#217 + 0 x219#218 + 0 x220#219 + 0 x224#223 + 0 _12#225
       + 0 x227#226 + 0 x228#227 + 0 x229#228 + 0 x232#231 + 0 x233#232
       + 0 _26#233 + 0 x235#234 + 0 x236#235 + 0 x237#236 + 0 x240#239
       + 0 x241#240 + 0 _27#241 + 0 x243#242 + 0 x244#243 + 0 x245#244
       + 0 x248#247 + 0 x249#248 + 0 _28#249 + 0 x251#250 + 0 x252#251
       + 0 x253#252 + 0 x256#255 + 0 x257#256 + 0 _29#257 + 0 x259#258
       + 0 x260#259 + 0 x261#260 + 0 x264#263 + 0 x265#264 + 0 _30#265
       + 0 x267#266 + 0 x268#267 + 0 x269#268 + 0 x272#271 + 0 x273#272
       + 0 _32#273 + 0 x275#274 + 0 x276#275 + 0 x277#276 + 0 x280#279
       + 0 x281#280 + 0 _34#281 + 0 x283#282 + 0 x284#283 + 0 x285#284
       + 0 x288#287 + 0 x289#288 + 0 _45#289 + 0 x291#290 + 0 x292#291
       + 0 x293#292 + 0 x294#293 + 0 x295#294 + 0 x296#295 + 0 x297#296
       + 0 x298#297 + 0 _46#298 + 0 x300#299 + 0 x301#300 + 0 x302#301
       + 0 x303#302 + 0 x304#303 + 0 x305#304 + 0 x306#305 + 0 x307#306
       + 0 _47#307 + 0 x309#308 + 0 x310#309 + 0 x311#310 + 0 x312#311
       + 0 x313#312 + 0 x314#313 + 0 x315#314 + 0 x316#315 + 0 _48#316
       + 0 x318#317 + 0 x319#318 + 0 x320#319 + 0 x321#320 + 0 x322#321
       + 0 x323#322 + 0 x324#323 + 0 x325#324 + 0 _49#325 + 0 x327#326
       + 0 x328#327 + 0 x329#328 + 0 x331#330 + 0 x332#331 + 0 x333#332
       + 0 x334#333 + 0 x337#336 + 0 x338#337 + 0 _50#338 + 0 x340#339
       + 0 x341#340 + 0 x342#341 + 0 x346#345 + 0 x347#346 + 0 _51#347
       + 0 x349#348 + 0 x350#349 + 0 x351#350 + 0 x353#352 + 0 x354#353
       + 0 x357#356 + 0 x358#357 + 0 _54#358 + 0 x360#359 + 0 x361#360
       + 0 x362#361 + 0 x364#363 + 0 x365#364 + 0 x366#365 + 0 x367#366
       + 0 x370#369 + 0 x371#370 + 0 _55#371 + 0 x373#372 + 0 x374#373
       + 0 x375#374 + 0 x377#376 + 0 x378#377 + 0 x381#380 + 0 x382#381
       + 0 _57#382 + 0 x384#383 + 0 x385#384 + 0 x386#385 + 0 x388#387
       + 0 x389#388 + 0 x390#389 + 0 x391#390 + 0 x394#393 + 0 x395#394
       + 0 _58#395 + 0 x397#396 + 0 x398#397 + 0 x399#398 + 0 x401#400
       + 0 x402#401
Subject To
 c1:  x207#92  = 1
 c2:  x96#95  = 1
 c3:  x99#98  = 1
 c4:  x102#101  = 1
 c5:  x105#104  = 1
 c6:  x108#107  = 1
 c7:  x111#110  = 1
 c8:  x114#113  = 1
 c9:  x117#116  = 1
 c10: x120#119  = 1
 c11: x123#122  = 1
 c12: x240#125  = 1
 c13: x129#128  = 1
 c14: x204#203  = 1
 c15: tcas_0_High_Confidence_0#2 + x213#212  = 1
 c16: x212#211 + x214#213  = 1
 c17: x207#206  = 1
 c18: x212#211 + x221#220  = 1
 c19: tcas_0_Two_of_Three_Reports_Valid_0#4 + x222#221  = 1
 c20: x221#220 + x223#222  = 1
 c21: x216#215  = 1
 c22: tcas_0_Climb_Inhibit_0#14 + x230#229  = 1
 c23: x212#211 + x231#230  = 1
 c24: x225#224  = 1
 c25: tcas_0_enabled_0#29 + x238#237  = 1
 c26: x221#220 + x239#238  = 1
 c27: tcas_0_tcas_equipped_0#31 + x246#245  = 1
 c28: x221#220 + x247#246  = 1
 c29: tcas_0_intent_not_known_0#33 + x254#253  = 1
 c30: x221#220 + x255#254  = 1
 c31: tcas_0_need_upward_RA_0#35 + x262#261  = 1
 c32: x221#220 + x263#262  = 1
 c33: tcas_0_need_downward_RA_0#37 + x270#269  = 1
 c34: x221#220 + x271#270  = 1
 c35: tcas_0_upward_preferred_0#40 + x278#277  = 1
 c36: x221#220 + x279#278  = 1
 c37: tcas_0_resultat_0#43 + x286#285  = 1
 c38: x221#220 + x287#286  = 1
 c39: tcas_0_enabled_1#71 + x335#334  = 1
 c40: x330#329 + x336#335  = 1
 c41: tcas_0_tcas_equipped_1#74 + x344#343  = 1
 c42: x343#342 + x345#344  = 1
 c43: tcas_0_intent_not_known_1#76 + x355#354  = 1
 c44: x352#351 + x356#355  = 1
 c45: tcas_0_resultat_1#81 + x368#367  = 1
 c46: x363#362 + x369#368  = 1
 c47: tcas_0_need_upward_RA_1#83 + x379#378  = 1
 c48: x376#375 + x380#379  = 1
 c49: tcas_0_resultat_2#87 + x392#391  = 1
 c50: x387#386 + x393#392  = 1
 c51: tcas_0_need_downward_RA_1#89 + x403#402  = 1
 c52: x400#399 + x404#403  = 1
 _1#0:        _1#93 = 1 <-> tcas_0_Cur_Vertical_Sep_0#0  = 893
 IloI1#1:     x207#92 = 1 -> _1#93  = 1
 _4#2:        _4#96 = 1 <-> tcas_0_Own_Tracked_Alt_0#5  = 5078
 IloI3#3:     x96#95 = 1 -> _4#96  = 1
 _5#4:        _5#99 = 1 <-> tcas_0_Own_Tracked_Alt_Rate_0#6  = 256
 IloI5#5:     x99#98 = 1 -> _5#99  = 1
 _6#6:        _6#102 = 1 <-> tcas_0_Other_Tracked_Alt_0#7  = 3944
 IloI7#7:     x102#101 = 1 -> _6#102  = 1
 _7#8:        _7#105 = 1 <-> tcas_0_Alt_Layer_Value_0#8  = 1
 IloI9#9:     x105#104 = 1 -> _7#105  = 1
 _8#10:       _8#108 = 1 <-> tcas_0_Up_Separation_0#9  = 500
 IloI11#11:   x108#107 = 1 -> _8#108  = 1
 _9#12:       _9#111 = 1 <-> tcas_0_Down_Separation_0#10  = 641
 IloI13#13:   x111#110 = 1 -> _9#111  = 1
 _10#14:      _10#114 = 1 <-> tcas_0_Other_RAC_0#11  = 0
 IloI15#15:   x114#113 = 1 -> _10#114  = 1
 _11#16:      _11#117 = 1 <-> tcas_0_Other_Capability_0#12  = 0
 IloI17#17:   x117#116 = 1 -> _11#117  = 1
 _13#18:      _13#120 = 1 <-> tcas_0_Positive_RA_Alt_Thresh_0(0)#15  = 0
 IloI19#19:   x120#119 = 1 -> _13#120  = 1
 _14#20:      _14#123 = 1 <-> tcas_0_Positive_RA_Alt_Thresh_0(1)#16  = 0
 IloI21#21:   x123#122 = 1 -> _14#123  = 1
 _15#22:      _15#126 = 1 <-> tcas_0_Positive_RA_Alt_Thresh_0(2)#17  = 0
 IloI23#23:   x240#125 = 1 -> _15#126  = 1
 _16#24:      _16#129 = 1 <-> tcas_0_Positive_RA_Alt_Thresh_0(3)#18  = 0
 IloI25#25:   x129#128 = 1 -> _16#129  = 1
 _17#26:      _17#132 = 1 <-> tcas_0_OLEV_0#19  = 0
 IloI27#27:   x132#131 = 1 -> _17#132  = 1
 _18#28:      _18#135 = 1 <-> tcas_0_MAXALTDIFF_0#20  = 0
 IloI29#29:   x135#134 = 1 -> _18#135  = 1
 _19#30:      _19#138 = 1 <-> tcas_0_MINSEP_0#21  = 0
 IloI31#31:   x138#137 = 1 -> _19#138  = 1
 _20#32:      _20#141 = 1 <-> tcas_0_NOZCROSS_0#22  = 0
 IloI33#33:   x141#140 = 1 -> _20#141  = 1
 _21#34:      _21#144 = 1 <-> tcas_0_NO_INTENT_0#23  = 0
 IloI35#35:   x144#143 = 1 -> _21#144  = 1
 _22#36:      _22#147 = 1 <-> tcas_0_TCAS_TA_0#24  = 0
 IloI37#37:   x147#146 = 1 -> _22#147  = 1
 _23#38:      _23#150 = 1 <-> tcas_0_UNRESOLVED_0#25  = 0
 IloI39#39:   x150#149 = 1 -> _23#150  = 1
 _24#40:      _24#153 = 1 <-> tcas_0_UPWARD_RA_0#26  = 0
 IloI41#41:   x153#152 = 1 -> _24#153  = 1
 _25#42:      _25#156 = 1 <-> tcas_0_DOWNWARD_RA_0#27  = 0
 IloI43#43:   x156#155 = 1 -> _25#156  = 1
 _31#44:      _31#159 = 1 <-> tcas_0_alt_sep_0#38  = 0
 IloI45#45:   x159#158 = 1 -> _31#159  = 1
 _33#46:      _33#162 = 1 <-> tcas_0_upward_crossing_situation_0#41  = 0
 IloI47#47:   x162#161 = 1 -> _33#162  = 1
 _35#48:      _35#165 = 1 <-> tcas_0_Inhibit_Biased_Climb_0#44  = 0
 IloI49#49:   x165#164 = 1 -> _35#165  = 1
 _36#50:      _36#168 = 1 <-> tcas_0_OLEV_1#45  = 600
 IloI51#51:   x168#167 = 1 -> _36#168  = 1
 _37#52:      _37#171 = 1 <-> tcas_0_MAXALTDIFF_1#46  = 600
 IloI53#53:   x171#170 = 1 -> _37#171  = 1
 _38#54:      _38#174 = 1 <-> tcas_0_MINSEP_1#47  = 300
 IloI55#55:   x174#173 = 1 -> _38#174  = 1
 _39#56:      _39#177 = 1 <-> tcas_0_NOZCROSS_1#48  = 100
 IloI57#57:   x177#176 = 1 -> _39#177  = 1
 _40#58:      _40#180 = 1 <-> tcas_0_NO_INTENT_1#49  = 0
 IloI59#59:   x180#179 = 1 -> _40#180  = 1
 _41#60:      _41#183 = 1 <-> tcas_0_TCAS_TA_1#50  = 1
 IloI61#61:   x183#182 = 1 -> _41#183  = 1
 _42#62:      _42#186 = 1 <-> tcas_0_UNRESOLVED_1#51  = 0
 IloI63#63:   x186#185 = 1 -> _42#186  = 1
 _43#64:      _43#189 = 1 <-> tcas_0_UPWARD_RA_1#52  = 1
 IloI65#65:   x189#188 = 1 -> _43#189  = 1
 _44#66:      _44#192 = 1 <-> tcas_0_DOWNWARD_RA_1#53  = 2
 IloI67#67:   x192#191 = 1 -> _44#192  = 1
 _52#68:      _52#195 = 1 <-> - tcas_0_UNRESOLVED_1#51 + tcas_0_alt_sep_1#78
               = 0
 IloI69#69:   x195#194 = 1 -> _52#195  = 1
 _53#70:      _53#198 = 1 <-> - tcas_0_Up_Separation_0#9 - tcas_0_NOZCROSS_1#48
              + tcas_0_Inhibit_Biased_Climb_1#79  = 0
 IloI71#71:   x198#197 = 1 -> _53#198  = 1
 _56#72:      _56#201 = 1 <-> - tcas_0_Up_Separation_0#9 - tcas_0_NOZCROSS_1#48
              + tcas_0_Inhibit_Biased_Climb_2#85  = 0
 IloI73#73:   x201#200 = 1 -> _56#201  = 1
 IloI74#74:   x204#203 = 1 -> tcas_0_need_downward_RA_1#89  = 1
 IloI75#75:   x212#211 = 1 <->  = 0
 IloI76#76:   x209#208 = 1 <-> tcas_0_High_Confidence_0#2 - x212#211 => 0
 IloI77#77:   x210#209 = 1 <-> x213#212 - x214#213 => 0
 _2#78:       _2#207 = 1 <-> x209#208 + x210#209 => 2
 IloI79#79:   x207#206 = 1 -> _2#207  = 1
 IloI80#80:   x218#217 = 1 <-> tcas_0_Two_of_Three_Reports_Valid_0#4 - x221#220
              => 0
 IloI81#81:   x219#218 = 1 <-> x222#221 - x223#222 => 0
 _3#82:       _3#216 = 1 <-> x218#217 + x219#218 => 2
 IloI83#83:   x216#215 = 1 -> _3#216  = 1
 IloI84#84:   x227#226 = 1 <-> tcas_0_Climb_Inhibit_0#14 - x212#211 => 0
 IloI85#85:   x228#227 = 1 <-> x230#229 - x231#230 => 0
 _12#86:      _12#225 = 1 <-> x227#226 + x228#227 => 2
 IloI87#87:   x225#224 = 1 -> _12#225  = 1
 IloI88#88:   x235#234 = 1 <-> tcas_0_enabled_0#29 - x221#220 => 0
 IloI89#89:   x236#235 = 1 <-> x238#237 - x239#238 => 0
 _26#90:      _26#233 = 1 <-> x235#234 + x236#235 => 2
 IloI91#91:   x233#232 = 1 -> _26#233  = 1
 IloI92#92:   x243#242 = 1 <-> tcas_0_tcas_equipped_0#31 - x221#220 => 0
 IloI93#93:   x244#243 = 1 <-> x246#245 - x247#246 => 0
 _27#94:      _27#241 = 1 <-> x243#242 + x244#243 => 2
 IloI95#95:   x241#240 = 1 -> _27#241  = 1
 IloI96#96:   x251#250 = 1 <-> tcas_0_intent_not_known_0#33 - x221#220 => 0
 IloI97#97:   x252#251 = 1 <-> x254#253 - x255#254 => 0
 _28#98:      _28#249 = 1 <-> x251#250 + x252#251 => 2
 IloI99#99:   x249#248 = 1 -> _28#249  = 1
 IloI100#100: x259#258 = 1 <-> tcas_0_need_upward_RA_0#35 - x221#220 => 0
 IloI101#101: x260#259 = 1 <-> x262#261 - x263#262 => 0
 _29#102:     _29#257 = 1 <-> x259#258 + x260#259 => 2
 IloI103#103: x257#256 = 1 -> _29#257  = 1
 IloI104#104: x267#266 = 1 <-> tcas_0_need_downward_RA_0#37 - x221#220 => 0
 IloI105#105: x268#267 = 1 <-> x270#269 - x271#270 => 0
 _30#106:     _30#265 = 1 <-> x267#266 + x268#267 => 2
 IloI107#107: x265#264 = 1 -> _30#265  = 1
 IloI108#108: x275#274 = 1 <-> tcas_0_upward_preferred_0#40 - x221#220 => 0
 IloI109#109: x276#275 = 1 <-> x278#277 - x279#278 => 0
 _32#110:     _32#273 = 1 <-> x275#274 + x276#275 => 2
 IloI111#111: x273#272 = 1 -> _32#273  = 1
 IloI112#112: x283#282 = 1 <-> tcas_0_resultat_0#43 - x221#220 => 0
 IloI113#113: x284#283 = 1 <-> x286#285 - x287#286 => 0
 _34#114:     _34#281 = 1 <-> x283#282 + x284#283 => 2
 IloI115#115: x281#280 = 1 -> _34#281  = 1
 IloI116#116: x295#294 = 1 <-> tcas_0_Positive_RA_Alt_Thresh_1(0)#54  = 400
 IloI117#117: x296#295 = 1 <-> tcas_0_Positive_RA_Alt_Thresh_1(1)#55
              - tcas_0_Positive_RA_Alt_Thresh_0(1)#16  = 0
 IloI118#118: x293#292 = 1 <-> x295#294 + x296#295 => 2
 IloI119#119: x294#293 = 1 <-> tcas_0_Positive_RA_Alt_Thresh_1(2)#56
              - tcas_0_Positive_RA_Alt_Thresh_0(2)#17  = 0
 IloI120#120: x291#290 = 1 <-> x293#292 + x294#293 => 2
 IloI121#121: x292#291 = 1 <-> tcas_0_Positive_RA_Alt_Thresh_1(3)#57
              - tcas_0_Positive_RA_Alt_Thresh_0(3)#18  = 0
 _45#122:     _45#289 = 1 <-> x291#290 + x292#291 => 2
 IloI123#123: x289#288 = 1 -> _45#289  = 1
 IloI124#124: x304#303 = 1 <-> tcas_0_Positive_RA_Alt_Thresh_2(1)#58  = 550
 IloI125#125: x305#304 = 1 <-> tcas_0_Positive_RA_Alt_Thresh_2(0)#59
              - tcas_0_Positive_RA_Alt_Thresh_1(0)#54  = 0
 IloI126#126: x302#301 = 1 <-> x304#303 + x305#304 => 2
 IloI127#127: x303#302 = 1 <-> tcas_0_Positive_RA_Alt_Thresh_2(2)#60
              - tcas_0_Positive_RA_Alt_Thresh_1(2)#56  = 0
 IloI128#128: x300#299 = 1 <-> x302#301 + x303#302 => 2
 IloI129#129: x301#300 = 1 <-> tcas_0_Positive_RA_Alt_Thresh_2(3)#61
              - tcas_0_Positive_RA_Alt_Thresh_1(3)#57  = 0
 _46#130:     _46#298 = 1 <-> x300#299 + x301#300 => 2
 IloI131#131: x298#297 = 1 -> _46#298  = 1
 IloI132#132: x313#312 = 1 <-> tcas_0_Positive_RA_Alt_Thresh_3(2)#62  = 640
 IloI133#133: x314#313 = 1 <-> tcas_0_Positive_RA_Alt_Thresh_3(0)#63
              - tcas_0_Positive_RA_Alt_Thresh_2(0)#59  = 0
 IloI134#134: x311#310 = 1 <-> x313#312 + x314#313 => 2
 IloI135#135: x312#311 = 1 <-> tcas_0_Positive_RA_Alt_Thresh_3(1)#64
              - tcas_0_Positive_RA_Alt_Thresh_2(1)#58  = 0
 IloI136#136: x309#308 = 1 <-> x311#310 + x312#311 => 2
 IloI137#137: x310#309 = 1 <-> tcas_0_Positive_RA_Alt_Thresh_3(3)#65
              - tcas_0_Positive_RA_Alt_Thresh_2(3)#61  = 0
 _47#138:     _47#307 = 1 <-> x309#308 + x310#309 => 2
 IloI139#139: x307#306 = 1 -> _47#307  = 1
 IloI140#140: x322#321 = 1 <-> tcas_0_Positive_RA_Alt_Thresh_4(3)#66  = 740
 IloI141#141: x323#322 = 1 <-> tcas_0_Positive_RA_Alt_Thresh_4(0)#67
              - tcas_0_Positive_RA_Alt_Thresh_3(0)#63  = 0
 IloI142#142: x320#319 = 1 <-> x322#321 + x323#322 => 2
 IloI143#143: x321#320 = 1 <-> tcas_0_Positive_RA_Alt_Thresh_4(1)#68
              - tcas_0_Positive_RA_Alt_Thresh_3(1)#64  = 0
 IloI144#144: x318#317 = 1 <-> x320#319 + x321#320 => 2
 IloI145#145: x319#318 = 1 <-> tcas_0_Positive_RA_Alt_Thresh_4(2)#69
              - tcas_0_Positive_RA_Alt_Thresh_3(2)#62  = 0
 _48#146:     _48#316 = 1 <-> x318#317 + x319#318 => 2
 IloI147#147: x316#315 = 1 -> _48#316  = 1
 IloI148#148: x331#330 = 1 <-> tcas_0_Cur_Vertical_Sep_0#0
              - tcas_0_MAXALTDIFF_1#46 => 1
 IloI149#149: x333#332 = 1 <-> tcas_0_Own_Tracked_Alt_Rate_0#6
              - tcas_0_OLEV_1#45 =< 0
 IloI150#150: x332#331 = 1 <-> x333#332 + tcas_0_High_Confidence_0#2 => 2
 IloI151#151: x330#329 = 1 <-> x331#330 + x332#331 => 2
 IloI152#152: x327#326 = 1 <-> tcas_0_enabled_1#71 - x330#329 => 0
 IloI153#153: x328#327 = 1 <-> x335#334 - x336#335 => 0
 _49#154:     _49#325 = 1 <-> x327#326 + x328#327 => 2
 IloI155#155: x325#324 = 1 -> _49#325  = 1
 IloI156#156: x343#342 = 1 <-> tcas_0_Other_Capability_0#12
              - tcas_0_TCAS_TA_1#50  = 0
 IloI157#157: x340#339 = 1 <-> tcas_0_tcas_equipped_1#74 - x343#342 => 0
 IloI158#158: x341#340 = 1 <-> x344#343 - x345#344 => 0
 _50#159:     _50#338 = 1 <-> x340#339 + x341#340 => 2
 IloI160#160: x338#337 = 1 -> _50#338  = 1
 IloI161#161: x353#352 = 1 <-> tcas_0_Other_RAC_0#11 - tcas_0_NO_INTENT_1#49
               = 0
 IloI162#162: x352#351 = 1 <-> x353#352 + tcas_0_Two_of_Three_Reports_Valid_0#4
              => 2
 IloI163#163: x349#348 = 1 <-> tcas_0_intent_not_known_1#76 - x352#351 => 0
 IloI164#164: x350#349 = 1 <-> x355#354 - x356#355 => 0
 _51#165:     _51#347 = 1 <-> x349#348 + x350#349 => 2
 IloI166#166: x347#346 = 1 -> _51#347  = 1
 IloI167#167: x364#363 = 1 <-> tcas_0_Up_Separation_0#9
              - tcas_0_Positive_RA_Alt_Thresh_4(1)#68 => 0
 IloI168#168: x366#365 = 1 <-> tcas_0_Cur_Vertical_Sep_0#0 - tcas_0_MINSEP_1#47
              => 0
 IloI169#169: x367#366 = 1 <-> tcas_0_Other_Tracked_Alt_0#7
              - tcas_0_Own_Tracked_Alt_0#5 =< -1
 IloI170#170: x365#364 = 1 <-> x366#365 + x367#366 => 2
 IloI171#171: x363#362 = 1 <-> x364#363 + x365#364 => 2
 IloI172#172: x360#359 = 1 <-> tcas_0_resultat_1#81 - x363#362 => 0
 IloI173#173: x361#360 = 1 <-> x368#367 - x369#368 => 0
 _54#174:     _54#358 = 1 <-> x360#359 + x361#360 => 2
 IloI175#175: x358#357 = 1 -> _54#358  = 1
 IloI176#176: x377#376 = 1 <-> tcas_0_Own_Tracked_Alt_0#5
              - tcas_0_Other_Tracked_Alt_0#7 =< -1
 IloI177#177: x376#375 = 1 <-> x377#376 + tcas_0_resultat_1#81 => 2
 IloI178#178: x373#372 = 1 <-> tcas_0_need_upward_RA_1#83 - x376#375 => 0
 IloI179#179: x374#373 = 1 <-> x379#378 - x380#379 => 0
 _55#180:     _55#371 = 1 <-> x373#372 + x374#373 => 2
 IloI181#181: x371#370 = 1 -> _55#371  = 1
 IloI182#182: x388#387 = 1 <-> tcas_0_Other_Tracked_Alt_0#7
              - tcas_0_Own_Tracked_Alt_0#5 => 0
 IloI183#183: x390#389 = 1 <-> tcas_0_Up_Separation_0#9
              - tcas_0_Positive_RA_Alt_Thresh_4(1)#68 => 0
 IloI184#184: x391#390 = 1 <-> tcas_0_Other_Tracked_Alt_0#7
              - tcas_0_Own_Tracked_Alt_0#5 =< -1
 IloI185#185: x389#388 = 1 <-> x390#389 + x391#390 => 2
 IloI186#186: x387#386 = 1 <-> x388#387 + x389#388 => 1
 IloI187#187: x384#383 = 1 <-> tcas_0_resultat_2#87 - x387#386 => 0
 IloI188#188: x385#384 = 1 <-> x392#391 - x393#392 => 0
 _57#189:     _57#382 = 1 <-> x384#383 + x385#384 => 2
 IloI190#190: x382#381 = 1 -> _57#382  = 1
 IloI191#191: x401#400 = 1 <-> tcas_0_Other_Tracked_Alt_0#7
              - tcas_0_Own_Tracked_Alt_0#5 =< -1
 IloI192#192: x400#399 = 1 <-> x401#400 + tcas_0_resultat_2#87 => 2
 IloI193#193: x397#396 = 1 <-> tcas_0_need_downward_RA_1#89 - x400#399 => 0
 IloI194#194: x398#397 = 1 <-> x403#402 - x404#403 => 0
 _58#195:     _58#395 = 1 <-> x397#396 + x398#397 => 2
 IloI196#196: x395#394 = 1 -> _58#395  = 1
Bounds
      tcas_0_Cur_Vertical_Sep_0#0 Free
 0 <= x4#1 <= 1
 0 <= tcas_0_High_Confidence_0#2 <= 1
 0 <= x11#3 <= 1
 0 <= tcas_0_Two_of_Three_Reports_Valid_0#4 <= 1
      tcas_0_Own_Tracked_Alt_0#5 Free
      tcas_0_Own_Tracked_Alt_Rate_0#6 Free
      tcas_0_Other_Tracked_Alt_0#7 Free
      tcas_0_Alt_Layer_Value_0#8 Free
      tcas_0_Up_Separation_0#9 Free
      tcas_0_Down_Separation_0#10 Free
      tcas_0_Other_RAC_0#11 Free
      tcas_0_Other_Capability_0#12 Free
 0 <= x25#13 <= 1
 0 <= tcas_0_Climb_Inhibit_0#14 <= 1
      tcas_0_Positive_RA_Alt_Thresh_0(0)#15 Free
      tcas_0_Positive_RA_Alt_Thresh_0(1)#16 Free
      tcas_0_Positive_RA_Alt_Thresh_0(2)#17 Free
      tcas_0_Positive_RA_Alt_Thresh_0(3)#18 Free
      tcas_0_OLEV_0#19 Free
      tcas_0_MAXALTDIFF_0#20 Free
      tcas_0_MINSEP_0#21 Free
      tcas_0_NOZCROSS_0#22 Free
      tcas_0_NO_INTENT_0#23 Free
      tcas_0_TCAS_TA_0#24 Free
      tcas_0_UNRESOLVED_0#25 Free
      tcas_0_UPWARD_RA_0#26 Free
      tcas_0_DOWNWARD_RA_0#27 Free
 0 <= x45#28 <= 1
 0 <= tcas_0_enabled_0#29 <= 1
 0 <= x51#30 <= 1
 0 <= tcas_0_tcas_equipped_0#31 <= 1
 0 <= x57#32 <= 1
 0 <= tcas_0_intent_not_known_0#33 <= 1
 0 <= x63#34 <= 1
 0 <= tcas_0_need_upward_RA_0#35 <= 1
 0 <= x69#36 <= 1
 0 <= tcas_0_need_downward_RA_0#37 <= 1
      tcas_0_alt_sep_0#38 Free
 0 <= x76#39 <= 1
 0 <= tcas_0_upward_preferred_0#40 <= 1
      tcas_0_upward_crossing_situation_0#41 Free
 0 <= x83#42 <= 1
 0 <= tcas_0_resultat_0#43 <= 1
      tcas_0_Inhibit_Biased_Climb_0#44 Free
      tcas_0_OLEV_1#45 Free
      tcas_0_MAXALTDIFF_1#46 Free
      tcas_0_MINSEP_1#47 Free
      tcas_0_NOZCROSS_1#48 Free
      tcas_0_NO_INTENT_1#49 Free
      tcas_0_TCAS_TA_1#50 Free
      tcas_0_UNRESOLVED_1#51 Free
      tcas_0_UPWARD_RA_1#52 Free
      tcas_0_DOWNWARD_RA_1#53 Free
      tcas_0_Positive_RA_Alt_Thresh_1(0)#54 Free
      tcas_0_Positive_RA_Alt_Thresh_1(1)#55 Free
      tcas_0_Positive_RA_Alt_Thresh_1(2)#56 Free
      tcas_0_Positive_RA_Alt_Thresh_1(3)#57 Free
      tcas_0_Positive_RA_Alt_Thresh_2(1)#58 Free
      tcas_0_Positive_RA_Alt_Thresh_2(0)#59 Free
      tcas_0_Positive_RA_Alt_Thresh_2(2)#60 Free
      tcas_0_Positive_RA_Alt_Thresh_2(3)#61 Free
      tcas_0_Positive_RA_Alt_Thresh_3(2)#62 Free
      tcas_0_Positive_RA_Alt_Thresh_3(0)#63 Free
      tcas_0_Positive_RA_Alt_Thresh_3(1)#64 Free
      tcas_0_Positive_RA_Alt_Thresh_3(3)#65 Free
      tcas_0_Positive_RA_Alt_Thresh_4(3)#66 Free
      tcas_0_Positive_RA_Alt_Thresh_4(0)#67 Free
      tcas_0_Positive_RA_Alt_Thresh_4(1)#68 Free
      tcas_0_Positive_RA_Alt_Thresh_4(2)#69 Free
 0 <= x139#70 <= 1
 0 <= tcas_0_enabled_1#71 <= 1
 0 <= x145#72 <= 1
 0 <= x150#73 <= 1
 0 <= tcas_0_tcas_equipped_1#74 <= 1
 0 <= x157#75 <= 1
 0 <= tcas_0_intent_not_known_1#76 <= 1
 0 <= x161#77 <= 1
      tcas_0_alt_sep_1#78 Free
      tcas_0_Inhibit_Biased_Climb_1#79 Free
 0 <= x168#80 <= 1
 0 <= tcas_0_resultat_1#81 <= 1
 0 <= x179#82 <= 1
 0 <= tcas_0_need_upward_RA_1#83 <= 1
 0 <= x183#84 <= 1
      tcas_0_Inhibit_Biased_Climb_2#85 Free
 0 <= x189#86 <= 1
 0 <= tcas_0_resultat_2#87 <= 1
 0 <= x200#88 <= 1
 0 <= tcas_0_need_downward_RA_1#89 <= 1
 0 <= x204#90 <= 1
 0 <= x206#91 <= 1
 0 <= x207#92 <= 1
 0 <= _1#93 <= 1
 0 <= x95#94 <= 1
 0 <= x96#95 <= 1
 0 <= _4#96 <= 1
 0 <= x98#97 <= 1
 0 <= x99#98 <= 1
 0 <= _5#99 <= 1
 0 <= x101#100 <= 1
 0 <= x102#101 <= 1
 0 <= _6#102 <= 1
 0 <= x104#103 <= 1
 0 <= x105#104 <= 1
 0 <= _7#105 <= 1
 0 <= x107#106 <= 1
 0 <= x108#107 <= 1
 0 <= _8#108 <= 1
 0 <= x110#109 <= 1
 0 <= x111#110 <= 1
 0 <= _9#111 <= 1
 0 <= x113#112 <= 1
 0 <= x114#113 <= 1
 0 <= _10#114 <= 1
 0 <= x116#115 <= 1
 0 <= x117#116 <= 1
 0 <= _11#117 <= 1
 0 <= x119#118 <= 1
 0 <= x120#119 <= 1
 0 <= _13#120 <= 1
 0 <= x122#121 <= 1
 0 <= x123#122 <= 1
 0 <= _14#123 <= 1
 0 <= x239#124 <= 1
 0 <= x240#125 <= 1
 0 <= _15#126 <= 1
 0 <= x128#127 <= 1
 0 <= x129#128 <= 1
 0 <= _16#129 <= 1
 0 <= x131#130 <= 1
 0 <= x132#131 <= 1
 0 <= _17#132 <= 1
 0 <= x134#133 <= 1
 0 <= x135#134 <= 1
 0 <= _18#135 <= 1
 0 <= x137#136 <= 1
 0 <= x138#137 <= 1
 0 <= _19#138 <= 1
 0 <= x140#139 <= 1
 0 <= x141#140 <= 1
 0 <= _20#141 <= 1
 0 <= x143#142 <= 1
 0 <= x144#143 <= 1
 0 <= _21#144 <= 1
 0 <= x146#145 <= 1
 0 <= x147#146 <= 1
 0 <= _22#147 <= 1
 0 <= x149#148 <= 1
 0 <= x150#149 <= 1
 0 <= _23#150 <= 1
 0 <= x152#151 <= 1
 0 <= x153#152 <= 1
 0 <= _24#153 <= 1
 0 <= x155#154 <= 1
 0 <= x156#155 <= 1
 0 <= _25#156 <= 1
 0 <= x158#157 <= 1
 0 <= x159#158 <= 1
 0 <= _31#159 <= 1
 0 <= x161#160 <= 1
 0 <= x162#161 <= 1
 0 <= _33#162 <= 1
 0 <= x164#163 <= 1
 0 <= x165#164 <= 1
 0 <= _35#165 <= 1
 0 <= x167#166 <= 1
 0 <= x168#167 <= 1
 0 <= _36#168 <= 1
 0 <= x170#169 <= 1
 0 <= x171#170 <= 1
 0 <= _37#171 <= 1
 0 <= x173#172 <= 1
 0 <= x174#173 <= 1
 0 <= _38#174 <= 1
 0 <= x176#175 <= 1
 0 <= x177#176 <= 1
 0 <= _39#177 <= 1
 0 <= x179#178 <= 1
 0 <= x180#179 <= 1
 0 <= _40#180 <= 1
 0 <= x182#181 <= 1
 0 <= x183#182 <= 1
 0 <= _41#183 <= 1
 0 <= x185#184 <= 1
 0 <= x186#185 <= 1
 0 <= _42#186 <= 1
 0 <= x188#187 <= 1
 0 <= x189#188 <= 1
 0 <= _43#189 <= 1
 0 <= x191#190 <= 1
 0 <= x192#191 <= 1
 0 <= _44#192 <= 1
 0 <= x194#193 <= 1
 0 <= x195#194 <= 1
 0 <= _52#195 <= 1
 0 <= x197#196 <= 1
 0 <= x198#197 <= 1
 0 <= _53#198 <= 1
 0 <= x200#199 <= 1
 0 <= x201#200 <= 1
 0 <= _56#201 <= 1
 0 <= x203#202 <= 1
 0 <= x204#203 <= 1
 0 <= _59#204 <= 1
 0 <= x206#205 <= 1
 0 <= x207#206 <= 1
 0 <= _2#207 <= 1
 0 <= x209#208 <= 1
 0 <= x210#209 <= 1
 0 <= x211#210 <= 1
 0 <= x212#211 <= 1
 0 <= x213#212 <= 1
 0 <= x214#213 <= 1
 0 <= x215#214 <= 1
 0 <= x216#215 <= 1
 0 <= _3#216 <= 1
 0 <= x218#217 <= 1
 0 <= x219#218 <= 1
 0 <= x220#219 <= 1
 0 <= x221#220 <= 1
 0 <= x222#221 <= 1
 0 <= x223#222 <= 1
 0 <= x224#223 <= 1
 0 <= x225#224 <= 1
 0 <= _12#225 <= 1
 0 <= x227#226 <= 1
 0 <= x228#227 <= 1
 0 <= x229#228 <= 1
 0 <= x230#229 <= 1
 0 <= x231#230 <= 1
 0 <= x232#231 <= 1
 0 <= x233#232 <= 1
 0 <= _26#233 <= 1
 0 <= x235#234 <= 1
 0 <= x236#235 <= 1
 0 <= x237#236 <= 1
 0 <= x238#237 <= 1
 0 <= x239#238 <= 1
 0 <= x240#239 <= 1
 0 <= x241#240 <= 1
 0 <= _27#241 <= 1
 0 <= x243#242 <= 1
 0 <= x244#243 <= 1
 0 <= x245#244 <= 1
 0 <= x246#245 <= 1
 0 <= x247#246 <= 1
 0 <= x248#247 <= 1
 0 <= x249#248 <= 1
 0 <= _28#249 <= 1
 0 <= x251#250 <= 1
 0 <= x252#251 <= 1
 0 <= x253#252 <= 1
 0 <= x254#253 <= 1
 0 <= x255#254 <= 1
 0 <= x256#255 <= 1
 0 <= x257#256 <= 1
 0 <= _29#257 <= 1
 0 <= x259#258 <= 1
 0 <= x260#259 <= 1
 0 <= x261#260 <= 1
 0 <= x262#261 <= 1
 0 <= x263#262 <= 1
 0 <= x264#263 <= 1
 0 <= x265#264 <= 1
 0 <= _30#265 <= 1
 0 <= x267#266 <= 1
 0 <= x268#267 <= 1
 0 <= x269#268 <= 1
 0 <= x270#269 <= 1
 0 <= x271#270 <= 1
 0 <= x272#271 <= 1
 0 <= x273#272 <= 1
 0 <= _32#273 <= 1
 0 <= x275#274 <= 1
 0 <= x276#275 <= 1
 0 <= x277#276 <= 1
 0 <= x278#277 <= 1
 0 <= x279#278 <= 1
 0 <= x280#279 <= 1
 0 <= x281#280 <= 1
 0 <= _34#281 <= 1
 0 <= x283#282 <= 1
 0 <= x284#283 <= 1
 0 <= x285#284 <= 1
 0 <= x286#285 <= 1
 0 <= x287#286 <= 1
 0 <= x288#287 <= 1
 0 <= x289#288 <= 1
 0 <= _45#289 <= 1
 0 <= x291#290 <= 1
 0 <= x292#291 <= 1
 0 <= x293#292 <= 1
 0 <= x294#293 <= 1
 0 <= x295#294 <= 1
 0 <= x296#295 <= 1
 0 <= x297#296 <= 1
 0 <= x298#297 <= 1
 0 <= _46#298 <= 1
 0 <= x300#299 <= 1
 0 <= x301#300 <= 1
 0 <= x302#301 <= 1
 0 <= x303#302 <= 1
 0 <= x304#303 <= 1
 0 <= x305#304 <= 1
 0 <= x306#305 <= 1
 0 <= x307#306 <= 1
 0 <= _47#307 <= 1
 0 <= x309#308 <= 1
 0 <= x310#309 <= 1
 0 <= x311#310 <= 1
 0 <= x312#311 <= 1
 0 <= x313#312 <= 1
 0 <= x314#313 <= 1
 0 <= x315#314 <= 1
 0 <= x316#315 <= 1
 0 <= _48#316 <= 1
 0 <= x318#317 <= 1
 0 <= x319#318 <= 1
 0 <= x320#319 <= 1
 0 <= x321#320 <= 1
 0 <= x322#321 <= 1
 0 <= x323#322 <= 1
 0 <= x324#323 <= 1
 0 <= x325#324 <= 1
 0 <= _49#325 <= 1
 0 <= x327#326 <= 1
 0 <= x328#327 <= 1
 0 <= x329#328 <= 1
 0 <= x330#329 <= 1
 0 <= x331#330 <= 1
 0 <= x332#331 <= 1
 0 <= x333#332 <= 1
 0 <= x334#333 <= 1
 0 <= x335#334 <= 1
 0 <= x336#335 <= 1
 0 <= x337#336 <= 1
 0 <= x338#337 <= 1
 0 <= _50#338 <= 1
 0 <= x340#339 <= 1
 0 <= x341#340 <= 1
 0 <= x342#341 <= 1
 0 <= x343#342 <= 1
 0 <= x344#343 <= 1
 0 <= x345#344 <= 1
 0 <= x346#345 <= 1
 0 <= x347#346 <= 1
 0 <= _51#347 <= 1
 0 <= x349#348 <= 1
 0 <= x350#349 <= 1
 0 <= x351#350 <= 1
 0 <= x352#351 <= 1
 0 <= x353#352 <= 1
 0 <= x354#353 <= 1
 0 <= x355#354 <= 1
 0 <= x356#355 <= 1
 0 <= x357#356 <= 1
 0 <= x358#357 <= 1
 0 <= _54#358 <= 1
 0 <= x360#359 <= 1
 0 <= x361#360 <= 1
 0 <= x362#361 <= 1
 0 <= x363#362 <= 1
 0 <= x364#363 <= 1
 0 <= x365#364 <= 1
 0 <= x366#365 <= 1
 0 <= x367#366 <= 1
 0 <= x368#367 <= 1
 0 <= x369#368 <= 1
 0 <= x370#369 <= 1
 0 <= x371#370 <= 1
 0 <= _55#371 <= 1
 0 <= x373#372 <= 1
 0 <= x374#373 <= 1
 0 <= x375#374 <= 1
 0 <= x376#375 <= 1
 0 <= x377#376 <= 1
 0 <= x378#377 <= 1
 0 <= x379#378 <= 1
 0 <= x380#379 <= 1
 0 <= x381#380 <= 1
 0 <= x382#381 <= 1
 0 <= _57#382 <= 1
 0 <= x384#383 <= 1
 0 <= x385#384 <= 1
 0 <= x386#385 <= 1
 0 <= x387#386 <= 1
 0 <= x388#387 <= 1
 0 <= x389#388 <= 1
 0 <= x390#389 <= 1
 0 <= x391#390 <= 1
 0 <= x392#391 <= 1
 0 <= x393#392 <= 1
 0 <= x394#393 <= 1
 0 <= x395#394 <= 1
 0 <= _58#395 <= 1
 0 <= x397#396 <= 1
 0 <= x398#397 <= 1
 0 <= x399#398 <= 1
 0 <= x400#399 <= 1
 0 <= x401#400 <= 1
 0 <= x402#401 <= 1
 0 <= x403#402 <= 1
 0 <= x404#403 <= 1
Binaries
 x4#1  x11#3  x25#13  x45#28  x51#30  x57#32  x63#34  x69#36  x76#39  x83#42 
 x139#70  x145#72  x150#73  x157#75  x161#77  x168#80  x179#82  x183#84 
 x189#86  x200#88  x204#90  x206#91  x207#92  _1#93  x95#94  x96#95  _4#96 
 x98#97  x99#98  _5#99  x101#100  x102#101  _6#102  x104#103  x105#104  _7#105 
 x107#106  x108#107  _8#108  x110#109  x111#110  _9#111  x113#112  x114#113 
 _10#114  x116#115  x117#116  _11#117  x119#118  x120#119  _13#120  x122#121 
 x123#122  _14#123  x239#124  x240#125  _15#126  x128#127  x129#128  _16#129 
 x131#130  x132#131  _17#132  x134#133  x135#134  _18#135  x137#136  x138#137 
 _19#138  x140#139  x141#140  _20#141  x143#142  x144#143  _21#144  x146#145 
 x147#146  _22#147  x149#148  x150#149  _23#150  x152#151  x153#152  _24#153 
 x155#154  x156#155  _25#156  x158#157  x159#158  _31#159  x161#160  x162#161 
 _33#162  x164#163  x165#164  _35#165  x167#166  x168#167  _36#168  x170#169 
 x171#170  _37#171  x173#172  x174#173  _38#174  x176#175  x177#176  _39#177 
 x179#178  x180#179  _40#180  x182#181  x183#182  _41#183  x185#184  x186#185 
 _42#186  x188#187  x189#188  _43#189  x191#190  x192#191  _44#192  x194#193 
 x195#194  _52#195  x197#196  x198#197  _53#198  x200#199  x201#200  _56#201 
 x203#202  x204#203  _59#204  x206#205  x207#206  _2#207  x209#208  x210#209 
 x211#210  x212#211  x213#212  x214#213  x215#214  x216#215  _3#216  x218#217 
 x219#218  x220#219  x221#220  x222#221  x223#222  x224#223  x225#224  _12#225 
 x227#226  x228#227  x229#228  x230#229  x231#230  x232#231  x233#232  _26#233 
 x235#234  x236#235  x237#236  x238#237  x239#238  x240#239  x241#240  _27#241 
 x243#242  x244#243  x245#244  x246#245  x247#246  x248#247  x249#248  _28#249 
 x251#250  x252#251  x253#252  x254#253  x255#254  x256#255  x257#256  _29#257 
 x259#258  x260#259  x261#260  x262#261  x263#262  x264#263  x265#264  _30#265 
 x267#266  x268#267  x269#268  x270#269  x271#270  x272#271  x273#272  _32#273 
 x275#274  x276#275  x277#276  x278#277  x279#278  x280#279  x281#280  _34#281 
 x283#282  x284#283  x285#284  x286#285  x287#286  x288#287  x289#288  _45#289 
 x291#290  x292#291  x293#292  x294#293  x295#294  x296#295  x297#296 
 x298#297  _46#298  x300#299  x301#300  x302#301  x303#302  x304#303  x305#304 
 x306#305  x307#306  _47#307  x309#308  x310#309  x311#310  x312#311  x313#312 
 x314#313  x315#314  x316#315  _48#316  x318#317  x319#318  x320#319  x321#320 
 x322#321  x323#322  x324#323  x325#324  _49#325  x327#326  x328#327  x329#328 
 x330#329  x331#330  x332#331  x333#332  x334#333  x335#334  x336#335 
 x337#336  x338#337  _50#338  x340#339  x341#340  x342#341  x343#342  x344#343 
 x345#344  x346#345  x347#346  _51#347  x349#348  x350#349  x351#350  x352#351 
 x353#352  x354#353  x355#354  x356#355  x357#356  x358#357  _54#358  x360#359 
 x361#360  x362#361  x363#362  x364#363  x365#364  x366#365  x367#366 
 x368#367  x369#368  x370#369  x371#370  _55#371  x373#372  x374#373  x375#374 
 x376#375  x377#376  x378#377  x379#378  x380#379  x381#380  x382#381  _57#382 
 x384#383  x385#384  x386#385  x387#386  x388#387  x389#388  x390#389 
 x391#390  x392#391  x393#392  x394#393  x395#394  _58#395  x397#396  x398#397 
 x399#398  x400#399  x401#400  x402#401  x403#402  x404#403 
Generals
 tcas_0_Cur_Vertical_Sep_0#0  tcas_0_High_Confidence_0#2 
 tcas_0_Two_of_Three_Reports_Valid_0#4  tcas_0_Own_Tracked_Alt_0#5 
 tcas_0_Own_Tracked_Alt_Rate_0#6  tcas_0_Other_Tracked_Alt_0#7 
 tcas_0_Alt_Layer_Value_0#8  tcas_0_Up_Separation_0#9 
 tcas_0_Down_Separation_0#10  tcas_0_Other_RAC_0#11 
 tcas_0_Other_Capability_0#12  tcas_0_Climb_Inhibit_0#14 
 tcas_0_Positive_RA_Alt_Thresh_0(0)#15  tcas_0_Positive_RA_Alt_Thresh_0(1)#16 
 tcas_0_Positive_RA_Alt_Thresh_0(2)#17  tcas_0_Positive_RA_Alt_Thresh_0(3)#18 
 tcas_0_OLEV_0#19  tcas_0_MAXALTDIFF_0#20  tcas_0_MINSEP_0#21 
 tcas_0_NOZCROSS_0#22  tcas_0_NO_INTENT_0#23  tcas_0_TCAS_TA_0#24 
 tcas_0_UNRESOLVED_0#25  tcas_0_UPWARD_RA_0#26  tcas_0_DOWNWARD_RA_0#27 
 tcas_0_enabled_0#29  tcas_0_tcas_equipped_0#31  tcas_0_intent_not_known_0#33 
 tcas_0_need_upward_RA_0#35  tcas_0_need_downward_RA_0#37  tcas_0_alt_sep_0#38 
 tcas_0_upward_preferred_0#40  tcas_0_upward_crossing_situation_0#41 
 tcas_0_resultat_0#43  tcas_0_Inhibit_Biased_Climb_0#44  tcas_0_OLEV_1#45 
 tcas_0_MAXALTDIFF_1#46  tcas_0_MINSEP_1#47  tcas_0_NOZCROSS_1#48 
 tcas_0_NO_INTENT_1#49  tcas_0_TCAS_TA_1#50  tcas_0_UNRESOLVED_1#51 
 tcas_0_UPWARD_RA_1#52  tcas_0_DOWNWARD_RA_1#53 
 tcas_0_Positive_RA_Alt_Thresh_1(0)#54  tcas_0_Positive_RA_Alt_Thresh_1(1)#55 
 tcas_0_Positive_RA_Alt_Thresh_1(2)#56  tcas_0_Positive_RA_Alt_Thresh_1(3)#57 
 tcas_0_Positive_RA_Alt_Thresh_2(1)#58  tcas_0_Positive_RA_Alt_Thresh_2(0)#59 
 tcas_0_Positive_RA_Alt_Thresh_2(2)#60  tcas_0_Positive_RA_Alt_Thresh_2(3)#61 
 tcas_0_Positive_RA_Alt_Thresh_3(2)#62  tcas_0_Positive_RA_Alt_Thresh_3(0)#63 
 tcas_0_Positive_RA_Alt_Thresh_3(1)#64  tcas_0_Positive_RA_Alt_Thresh_3(3)#65 
 tcas_0_Positive_RA_Alt_Thresh_4(3)#66  tcas_0_Positive_RA_Alt_Thresh_4(0)#67 
 tcas_0_Positive_RA_Alt_Thresh_4(1)#68  tcas_0_Positive_RA_Alt_Thresh_4(2)#69 
 tcas_0_enabled_1#71  tcas_0_tcas_equipped_1#74  tcas_0_intent_not_known_1#76 
 tcas_0_alt_sep_1#78  tcas_0_Inhibit_Biased_Climb_1#79  tcas_0_resultat_1#81 
 tcas_0_need_upward_RA_1#83  tcas_0_Inhibit_Biased_Climb_2#85 
 tcas_0_resultat_2#87  tcas_0_need_downward_RA_1#89 
End
